(set-logic ALL)
(declare-const k Int)
(declare-fun %B () (_ BitVec k))
(declare-fun %A () (_ BitVec k))
(assert (not (= (bvsub (bvor %A %B) (bvxor %A %B)) (bvand %A %B))))
(assert true)
(check-sat)